! rks pbe def2-svp opt anfreq

* xyz 0 1
N                     0.0438   -1.92595   0.
C                    -0.79717  -0.74596   0.
H                     0.46104  -1.95739   0.90907
H                     0.46104  -1.95739  -0.90907
C                     0.05661   0.51399   0.
H                    -1.42307  -0.74417  -0.90115
H                    -1.42307  -0.74417   0.90115
O                     1.31175   0.4235    0.
O                    -0.5675    1.8006    0.
H                     0.10683   2.48386   0.
*
