! rks pbe def2-svp opt anfreq

* xyz 0 1
N                     0.17002  -1.7885    0.
C                    -0.78851  -0.70186   0.
H                     0.03504  -2.26046  -0.87538
H                     0.03504  -2.26046   0.87538
C                    -0.06969   0.63967   0.
H                    -1.4156   -0.76439  -0.89627
H                    -1.4156   -0.76439   0.89627
O                    -0.73311   1.70897   0.
O                     1.35957   0.68499   0.
H                     1.70853  -0.20932   0.
*
