! rks pbe def2-svp opt anfreq

* xyz 0 1
N                     0.21809  -1.84603   0.
C                    -0.77997  -0.79559   0.
H                     0.51748  -1.93228   0.92982
H                     0.51748  -1.93228  -0.92982
C                    -0.11126   0.57149   0.
H                    -1.39982  -0.87166  -0.91821
H                    -1.39982  -0.87166   0.91821
O                    -0.81377   1.6155    0.
O                     1.31533   0.66956   0.
H                     1.5729    1.59428   0.
*
