! rks pbe def2-svp opt anfreq

* xyz 0 1
N                     0.0438   -1.92595   0.
C                    -0.79717  -0.74596   0.
H                     0.86105  -1.67231  -0.5189
H                    -0.58115  -2.70014  -0.10748
C                     0.05661   0.51399   0.
H                    -1.42307  -0.74417  -0.90115
H                    -1.42307  -0.74417   0.90115
O                    -0.49262   1.64619   0.
O                     1.48291   0.41117   0.
H                     1.86759   1.29071   0.
*
