! rks pbe def2-svp

%tddft
 nroots 24
 tda false
 end

* xyzfile 0 1 6-ttc_opt.xyz *
